
Gurobi 11.0.3 (linux64) logging started Wed Apr 15 16:15:45 2026

Set parameter LogFile to value "tree/results/dmtl/dmtl_depth-3_run-3/Full MIP/LogFile_FullModel.txt"
Gurobi Optimizer version 11.0.3 build v11.0.3rc0 (linux64 - "CentOS Linux 7 (Core)")

CPU model: Intel(R) Xeon(R) Platinum 8260 CPU @ 2.40GHz, instruction set [SSE2|AVX|AVX2|AVX512]
Thread count: 96 physical cores, 192 logical processors, using up to 32 threads

Optimize a model with 22497 rows, 15802 columns and 706519 nonzeros
Model fingerprint: 0x40dcda48
Model has 2144 general constraints
Variable types: 9084 continuous, 6718 integer (6718 binary)
Coefficient statistics:
  Matrix range     [4e-03, 1e+04]
  Objective range  [4e-03, 1e+04]
  Bounds range     [1e+00, 6e+02]
  RHS range        [1e-04, 1e+03]

User MIP start produced solution with objective 0.798507 (0.15s)
Loaded user MIP start with objective 0.798507

Presolve added 2136 rows and 6431 columns
Presolve time: 0.66s
Presolved: 24633 rows, 22233 columns, 719356 nonzeros
Presolved model has 6432 SOS constraint(s)
Variable types: 9083 continuous, 13150 integer (13150 binary)

Deterministic concurrent LP optimizer: primal simplex, dual simplex, and barrier
Showing barrier log only...

Root relaxation presolved: 24633 rows, 22233 columns, 719356 nonzeros

Root barrier log...

Ordering time: 0.08s

Barrier statistics:
 Dense cols : 245
 AA' NZ     : 7.143e+05
 Factor NZ  : 2.415e+06 (roughly 40 MB of memory)
 Factor Ops : 2.694e+08 (less than 1 second per iteration)
 Threads    : 30

                  Objective                Residual
Iter       Primal          Dual         Primal    Dual     Compl     Time
   0   4.81289540e+02  4.16817203e+08  3.40e+04 5.97e-02  7.99e+05     2s
   1   4.81370485e+01  6.05458276e+08  1.44e+04 7.23e+01  3.12e+05     2s
   2   6.02490470e+00  5.92756467e+08  1.56e+03 1.54e+01  4.42e+04     2s
   3   1.09154435e+00  2.39333023e+08  1.82e+02 1.51e+00  6.91e+03     2s
   4   4.23283512e-01  3.28558312e+07  1.82e+01 1.48e-01  7.71e+02     2s
   5   3.39400653e-01  4.31321631e+06  1.14e+00 1.61e-02  9.27e+01     2s
   6   3.30998588e-01  4.48474703e+05  5.87e-02 1.61e-03  9.33e+00     2s
   7   3.31531473e-01  4.58046025e+04  5.82e-03 1.65e-04  9.50e-01     2s
   8   3.45243636e-01  5.49660116e+03  5.76e-04 1.98e-05  1.14e-01     2s
   9   5.27454539e-01  9.24630683e+02  5.71e-05 3.23e-06  1.92e-02     2s
  10   9.43086904e-01  1.19654427e+02  5.66e-06 3.09e-07  2.45e-03     3s
  11   9.94308690e-01  1.29769693e+01  5.61e-07 3.09e-08  2.48e-04     3s
  12   9.99430869e-01  2.19770117e+00  5.61e-08 3.09e-09  2.48e-05     3s
  13   9.99943087e-01  1.12088636e+00  5.56e-09 3.09e-10  2.50e-06     3s
  14   9.99994309e-01  1.01208864e+00  5.56e-10 3.09e-11  2.50e-07     3s
  15   9.99999431e-01  1.00122013e+00  5.54e-11 3.09e-12  2.52e-08     3s
  16   9.99999943e-01  1.00012201e+00  5.80e-12 3.09e-13  2.52e-09     3s
  17   9.99999994e-01  1.00001220e+00  8.53e-13 3.09e-14  2.52e-10     3s
  18   9.99999999e-01  1.00000122e+00  4.55e-13 3.09e-15  2.52e-11     3s
  19   1.00000000e+00  1.00000012e+00  4.19e-13 3.09e-16  2.52e-12     3s
  20   1.00000000e+00  1.00000001e+00  4.55e-13 3.09e-17  2.52e-13     3s

Barrier solved model in 20 iterations and 3.48 seconds (2.92 work units)
Optimal objective 1.00000000e+00

Concurrent spin time: 0.00s

Solved with barrier

Root relaxation: objective 1.000000e+00, 8497 iterations, 2.97 seconds (2.60 work units)

    Nodes    |    Current Node    |     Objective Bounds      |     Work
 Expl Unexpl |  Obj  Depth IntInf | Incumbent    BestBd   Gap | It/Node Time

     0     0    1.00000    0 1307    0.79851    1.00000  25.2%     -    4s
     0     2    1.00000    0 1307    0.79851    1.00000  25.2%     -   18s
     1     4    1.00000    1 1098    0.79851    1.00000  25.2%  7529   38s
     3     8    1.00000    2  215    0.79851    1.00000  25.2%  4332   53s
     7    16    1.00000    3  124    0.79851    1.00000  25.2%  3060   78s
    15    32    1.00000    4   79    0.79851    1.00000  25.2%  3106  120s
    31    64    1.00000    5   82    0.79851    1.00000  25.2%  2672  137s
    63    96    1.00000    6   81    0.79851    1.00000  25.2%  1608  204s
    95   128    1.00000    7   80    0.79851    1.00000  25.2%  1294  267s
   127   160    1.00000    8   79    0.79851    1.00000  25.2%  1368  296s
   159   192    1.00000    9  132    0.79851    1.00000  25.2%  1140  391s
   191   246    1.00000   10  134    0.79851    1.00000  25.2%   977  412s
   245   436    1.00000   11  133    0.79851    1.00000  25.2%   958  785s
   435  1260    1.00000   18  133    0.79851    1.00000  25.2%   611 1716s
  1259  3731    1.00000   40  702    0.79851    1.00000  25.2%   618 3570s
  3735  3928    1.00000   56  694    0.79851    1.00000  25.2%   667 3600s

Cutting planes:
  Lazy constraints: 1

Explored 3935 nodes (2579544 simplex iterations) in 3600.31 seconds (7936.51 work units)
Thread count was 32 (of 192 available processors)

Solution count 1: 0.798507 

Time limit reached
Best objective 7.985074626866e-01, best bound 1.000000000000e+00, gap 25.2336%

User-callback calls 2845499, time in user-callback 12.86 sec
